(set-logic QF_S)
(declare-fun var0 () String)
(assert (str.in.re var0 (re.++ (re.union (re.+ (str.to.re "00")) (re.+ (str.to.re "1"))) (re.++ (re.+ (re.* (str.to.re "2"))) (re.++ (re.+ (re.union (str.to.re "33") (str.to.re "44"))) (re.++ (re.* (re.* (str.to.re "55"))) (re.++ (re.* (re.* (str.to.re "6"))) (re.++ (re.union (re.* (str.to.re "77")) (re.* (str.to.re "8"))) (re.++ (re.union (re.+ (str.to.re "99")) (re.+ (str.to.re "aa"))) (re.++ (re.+ (re.* (str.to.re "bb"))) (re.++ (re.* (re.union (str.to.re "ccc") (str.to.re "ddd"))) (re.++ (re.* (re.union (str.to.re "e") (str.to.re "fff"))) (re.++ (re.* (re.union (str.to.re "gg") (str.to.re "hh"))) (re.++ (re.* (re.union (str.to.re "ii") (str.to.re "jjj"))) (re.++ (re.+ (re.+ (str.to.re "kk"))) (re.++ (re.* (re.union (str.to.re "lll") (str.to.re "mmm"))) (re.++ (re.union (re.+ (str.to.re "nnn")) (re.+ (str.to.re "oo"))) (re.++ (re.* (re.* (str.to.re "ppp"))) (re.++ (re.union (re.+ (str.to.re "qq")) (re.+ (str.to.re "r"))) (re.++ (re.* (re.* (str.to.re "sss"))) (re.++ (re.* (re.* (str.to.re "t"))) (re.++ (re.union (re.union (str.to.re "u") (str.to.re "vvv")) (re.union (str.to.re "www") (str.to.re "x"))) (re.++ (re.+ (re.union (str.to.re "yyy") (str.to.re "zz"))) (re.++ (re.+ (re.+ (str.to.re "A"))) (re.++ (re.+ (re.union (str.to.re "BBB") (str.to.re "CCC"))) (re.++ (re.* (re.* (str.to.re "DDD"))) (re.++ (re.* (re.union (str.to.re "EE") (str.to.re "F"))) (re.++ (re.+ (re.* (str.to.re "G"))) (re.++ (re.* (re.* (str.to.re "HH"))) (re.++ (re.union (re.union (str.to.re "I") (str.to.re "JJJ")) (re.union (str.to.re "K") (str.to.re "L"))) (re.++ (re.+ (re.+ (str.to.re "MM"))) (re.++ (re.+ (re.union (str.to.re "NNN") (str.to.re "O"))) (re.++ (re.union (re.+ (str.to.re "PP")) (re.+ (str.to.re "QQ"))) (re.++ (re.+ (re.* (str.to.re "RRR"))) (re.++ (re.union (re.+ (str.to.re "SS")) (re.+ (str.to.re "T"))) (re.++ (re.+ (re.+ (str.to.re "U"))) (re.++ (re.* (re.union (str.to.re "VV") (str.to.re "WWW"))) (re.++ (re.+ (re.union (str.to.re "XXX") (str.to.re "YY"))) (re.++ (re.union (re.union (str.to.re "ZZZ") (str.to.re "!!")) (re.union (str.to.re """""") (str.to.re "#"))) (re.++ (re.+ (re.union (str.to.re "$$$") (str.to.re "%%%"))) (re.++ (re.union (re.union (str.to.re "&&") (str.to.re "'''")) (re.union (str.to.re "((") (str.to.re ")))"))) (re.++ (re.union (re.union (str.to.re "**") (str.to.re "+++")) (re.union (str.to.re ",,") (str.to.re "--"))) (re.++ (re.* (re.+ (str.to.re "."))) (re.++ (re.* (re.+ (str.to.re "///"))) (re.++ (re.+ (re.+ (str.to.re "::"))) (re.++ (re.+ (re.union (str.to.re ";;;") (str.to.re "<"))) (re.++ (re.* (re.union (str.to.re "=") (str.to.re ">>>"))) (re.++ (re.+ (re.union (str.to.re "??") (str.to.re "@@"))) (re.++ (re.* (re.union (str.to.re "[") (str.to.re "\\"))) (re.++ (re.union (re.+ (str.to.re "]]")) (re.+ (str.to.re "^^^"))) (re.++ (re.* (re.+ (str.to.re "__"))) (re.++ (re.union (re.+ (str.to.re "`")) (re.+ (str.to.re "{"))) (re.++ (re.* (re.+ (str.to.re "||"))) (re.++ (re.+ (re.* (str.to.re "}}"))) (re.++ (re.* (re.+ (str.to.re "~~~"))) (re.++ (re.* (re.+ (str.to.re "00"))) (re.++ (re.union (re.union (str.to.re "11") (str.to.re "2")) (re.union (str.to.re "33") (str.to.re "44"))) (re.++ (re.+ (re.union (str.to.re "5") (str.to.re "666"))) (re.++ (re.union (re.union (str.to.re "7") (str.to.re "88")) (re.union (str.to.re "999") (str.to.re "a"))) (re.++ (re.union (re.+ (str.to.re "bb")) (re.+ (str.to.re "cc"))) (re.++ (re.* (re.union (str.to.re "d") (str.to.re "e"))) (re.++ (re.+ (re.+ (str.to.re "f"))) (re.++ (re.union (re.+ (str.to.re "ggg")) (re.+ (str.to.re "hhh"))) (re.++ (re.+ (re.* (str.to.re "i"))) (re.++ (re.+ (re.* (str.to.re "jjj"))) (re.++ (re.union (re.+ (str.to.re "k")) (re.+ (str.to.re "ll"))) (re.++ (re.+ (re.+ (str.to.re "m"))) (re.++ (re.+ (re.+ (str.to.re "n"))) (re.++ (re.* (re.* (str.to.re "oo"))) (re.++ (re.+ (re.+ (str.to.re "p"))) (re.++ (re.union (re.union (str.to.re "qq") (str.to.re "rr")) (re.union (str.to.re "s") (str.to.re "t"))) (re.++ (re.union (re.+ (str.to.re "u")) (re.+ (str.to.re "v"))) (re.+ (re.* (str.to.re "www")))))))))))))))))))))))))))))))))))))))))))))))))))))))))))))))))))))))))))
(assert (not (str.in.re var0 (re.++ (re.* (re.* (str.to.re "0"))) (re.++ (re.+ (re.* (str.to.re "1"))) (re.++ (re.union (re.union (str.to.re "2") (str.to.re "33")) (re.union (str.to.re "4") (str.to.re "55"))) (re.++ (re.union (re.* (str.to.re "6")) (re.* (str.to.re "77"))) (re.++ (re.* (re.+ (str.to.re "88"))) (re.++ (re.+ (re.* (str.to.re "9"))) (re.++ (re.union (re.* (str.to.re "aa")) (re.* (str.to.re "bb"))) (re.++ (re.union (re.* (str.to.re "cc")) (re.* (str.to.re "d"))) (re.++ (re.* (re.union (str.to.re "e") (str.to.re "f"))) (re.++ (re.* (re.* (str.to.re "g"))) (re.++ (re.* (re.union (str.to.re "h") (str.to.re "ii"))) (re.++ (re.+ (re.* (str.to.re "j"))) (re.++ (re.+ (re.+ (str.to.re "kkk"))) (re.++ (re.* (re.+ (str.to.re "l"))) (re.++ (re.+ (re.* (str.to.re "mm"))) (re.++ (re.+ (re.* (str.to.re "nnn"))) (re.++ (re.union (re.+ (str.to.re "oo")) (re.+ (str.to.re "pp"))) (re.++ (re.* (re.+ (str.to.re "q"))) (re.++ (re.* (re.* (str.to.re "r"))) (re.++ (re.+ (re.+ (str.to.re "sss"))) (re.++ (re.* (re.union (str.to.re "t") (str.to.re "uuu"))) (re.++ (re.union (re.union (str.to.re "vvv") (str.to.re "ww")) (re.union (str.to.re "xx") (str.to.re "yyy"))) (re.++ (re.* (re.union (str.to.re "zz") (str.to.re "AA"))) (re.++ (re.+ (re.+ (str.to.re "BBB"))) (re.++ (re.+ (re.union (str.to.re "CCC") (str.to.re "D"))) (re.++ (re.+ (re.* (str.to.re "EE"))) (re.++ (re.union (re.+ (str.to.re "F")) (re.+ (str.to.re "G"))) (re.++ (re.+ (re.* (str.to.re "H"))) (re.++ (re.* (re.* (str.to.re "II"))) (re.++ (re.* (re.* (str.to.re "JJJ"))) (re.++ (re.union (re.union (str.to.re "KK") (str.to.re "LLL")) (re.union (str.to.re "M") (str.to.re "N"))) (re.++ (re.+ (re.union (str.to.re "OO") (str.to.re "P"))) (re.++ (re.* (re.* (str.to.re "Q"))) (re.++ (re.* (re.* (str.to.re "RRR"))) (re.++ (re.+ (re.* (str.to.re "S"))) (re.++ (re.+ (re.+ (str.to.re "TT"))) (re.++ (re.* (re.union (str.to.re "UUU") (str.to.re "VVV"))) (re.++ (re.union (re.+ (str.to.re "WWW")) (re.+ (str.to.re "XXX"))) (re.++ (re.union (re.* (str.to.re "YYY")) (re.* (str.to.re "ZZ"))) (re.++ (re.union (re.* (str.to.re "!")) (re.* (str.to.re """"""))) (re.++ (re.union (re.+ (str.to.re "###")) (re.+ (str.to.re "$$$"))) (re.++ (re.* (re.union (str.to.re "%%%") (str.to.re "&&"))) (re.++ (re.* (re.+ (str.to.re "'"))) (re.++ (re.* (re.+ (str.to.re "("))) (re.++ (re.union (re.+ (str.to.re ")))")) (re.+ (str.to.re "*"))) (re.++ (re.union (re.union (str.to.re "+++") (str.to.re ",,")) (re.union (str.to.re "-") (str.to.re "..."))) (re.++ (re.+ (re.* (str.to.re "/"))) (re.++ (re.+ (re.* (str.to.re "::"))) (re.++ (re.* (re.union (str.to.re ";;;") (str.to.re "<<"))) (re.++ (re.* (re.* (str.to.re "="))) (re.++ (re.union (re.+ (str.to.re ">")) (re.+ (str.to.re "??"))) (re.++ (re.+ (re.union (str.to.re "@@") (str.to.re "[[["))) (re.++ (re.+ (re.* (str.to.re "\\\\\\"))) (re.++ (re.+ (re.* (str.to.re "]]]"))) (re.++ (re.* (re.* (str.to.re "^^^"))) (re.++ (re.* (re.union (str.to.re "__") (str.to.re "``"))) (re.++ (re.* (re.+ (str.to.re "{{{"))) (re.++ (re.union (re.+ (str.to.re "|||")) (re.+ (str.to.re "}"))) (re.++ (re.* (re.+ (str.to.re "~"))) (re.++ (re.* (re.union (str.to.re "00") (str.to.re "111"))) (re.++ (re.union (re.* (str.to.re "2")) (re.* (str.to.re "333"))) (re.++ (re.union (re.* (str.to.re "44")) (re.* (str.to.re "555"))) (re.++ (re.union (re.+ (str.to.re "666")) (re.+ (str.to.re "7"))) (re.++ (re.+ (re.+ (str.to.re "8"))) (re.++ (re.+ (re.union (str.to.re "999") (str.to.re "aaa"))) (re.++ (re.* (re.union (str.to.re "bbb") (str.to.re "ccc"))) (re.++ (re.+ (re.union (str.to.re "ddd") (str.to.re "ee"))) (re.++ (re.+ (re.union (str.to.re "fff") (str.to.re "g"))) (re.++ (re.* (re.* (str.to.re "hhh"))) (re.++ (re.+ (re.+ (str.to.re "iii"))) (re.* (re.+ (str.to.re "jj"))))))))))))))))))))))))))))))))))))))))))))))))))))))))))))))))))))))))))))
(check-sat)